Maximize
x0

Subject To
x0 - 0.333x2 - 0.333x3 - x4 - x5 -0.333x6 - x7 =< 0
x0 + 0.333x1 =< 0
x0 + 0.333x1 - 0.333x4 + x5 + 0.333x7=< 0
x0 + x1 + 0.333x3 - x5 + 0.333x6 =< 0
x0 + x1 - x3 + x4 + x6 =< 0
x0 + 0.333x1 - 0.333x4 - x5 - 0.666x7 =<0
x0 + x1 - 0.333x3 + 0.666x6 =<0
x1+x2+x3+x4+x5+x6+x7=1

Bounds
x1 >= 0
x2 >= 0
x3 >= 0
x4 >= 0
x5 >= 0
x6 >=0
x7 >=0

End